
Gurobi 7.5.2 (linux64) logging started Sat Jul  7 16:02:12 2018

Changed value of parameter LogFile to result/ilp/simNo_5-n_100-m_40-s_4-minVAF_0.05-cov_10000-k_2-fn_0.25-fp_0.0001-na_0.15.ILP.gurobiSolverLog
   Prev: gurobi.log  Default: 
Changed value of parameter TimeLimit to 86400.0
   Prev: 1e+100  Min: 0.0  Max: 1e+100  Default: 1e+100
Optimize a model with 639293 rows, 10765 columns and 1940420 nonzeros
Variable types: 0 continuous, 10765 integer (10765 binary)
Coefficient statistics:
  Matrix range     [3e-05, 4e+00]
  Objective range  [1e+00, 2e+01]
  Bounds range     [1e+00, 1e+00]
  RHS range        [9e-02, 2e+00]
Found heuristic solution: objective -7158.636004
Presolve removed 136647 rows and 1053 columns (presolve time = 5s) ...
Presolve removed 137255 rows and 1053 columns (presolve time = 13s) ...
Presolve removed 198055 rows and 1661 columns (presolve time = 15s) ...
Presolve removed 198055 rows and 1661 columns (presolve time = 20s) ...
Presolve removed 198055 rows and 1661 columns
Presolve time: 21.88s
Presolved: 441238 rows, 9104 columns, 1325091 nonzeros
Variable types: 0 continuous, 9104 integer (9104 binary)
Presolved: 9104 rows, 450342 columns, 1334195 nonzeros

Presolve removed 9104 rows and 450342 columns

Root simplex log...

Iteration    Objective       Primal Inf.    Dual Inf.      Time
       0    4.4576555e+01   0.000000e+00   3.854600e+04     26s
   13257   -1.4856562e+02   0.000000e+00   0.000000e+00     30s
   13257   -1.4856562e+02   0.000000e+00   0.000000e+00     31s

Root relaxation: objective -1.485656e+02, 13257 iterations, 7.02 seconds
Total elapsed time = 50.83s
Total elapsed time = 66.81s

    Nodes    |    Current Node    |     Objective Bounds      |     Work
 Expl Unexpl |  Obj  Depth IntInf | Incumbent    BestBd   Gap | It/Node Time

     0     0 -148.56562    0  568 -7158.6360 -148.56562  97.9%     -   82s
H    0     0                    -600.9320230 -148.56562  75.3%     -   86s
H    0     0                    -252.0761358 -148.56562  41.1%     -   87s
H    0     0                    -218.8381402 -148.56562  32.1%     -   89s
     0     0 -153.53637    0  711 -218.83814 -153.53637  29.8%     -  113s
H    0     0                    -206.7339677 -153.53637  25.7%     -  128s
     0     0 -156.63664    0  714 -206.73397 -156.63664  24.2%     -  154s
H    0     0                    -205.7594353 -156.63664  23.9%     -  172s
     0     0 -156.63664    0  717 -205.75944 -156.63664  23.9%     -  174s
     0     0 -157.54414    0  725 -205.75944 -157.54414  23.4%     -  187s
     0     0 -157.54414    0  726 -205.75944 -157.54414  23.4%     -  193s
     0     0 -159.03559    0  738 -205.75944 -159.03559  22.7%     -  218s
     0     0 -159.13028    0  733 -205.75944 -159.13028  22.7%     -  228s
     0     0 -159.74580    0  725 -205.75944 -159.74580  22.4%     -  234s
     0     0 -159.74580    0  727 -205.75944 -159.74580  22.4%     -  238s
     0     0 -160.20349    0  744 -205.75944 -160.20349  22.1%     -  251s
     0     0 -160.20349    0  743 -205.75944 -160.20349  22.1%     -  257s
     0     0 -161.13817    0  747 -205.75944 -161.13817  21.7%     -  265s
     0     0 -161.33195    0  748 -205.75944 -161.33195  21.6%     -  273s
     0     0 -161.64914    0  846 -205.75944 -161.64914  21.4%     -  279s
     0     0 -161.66338    0  764 -205.75944 -161.66338  21.4%     -  284s
     0     0 -161.66338    0  767 -205.75944 -161.66338  21.4%     -  287s
     0     0 -162.99934    0  856 -205.75944 -162.99934  20.8%     -  311s
     0     0 -163.28208    0  757 -205.75944 -163.28208  20.6%     -  322s
     0     0 -163.33337    0  755 -205.75944 -163.33337  20.6%     -  327s
     0     0 -163.33337    0  757 -205.75944 -163.33337  20.6%     -  331s
     0     0 -164.36313    0  842 -205.75944 -164.36313  20.1%     -  364s
H    0     0                    -201.2883167 -164.36313  18.3%     -  377s
     0     0 -164.40089    0  835 -201.28832 -164.40089  18.3%     -  381s
     0     0 -164.40089    0  843 -201.28832 -164.40089  18.3%     -  386s
     0     0 -165.24498    0  838 -201.28832 -165.24498  17.9%     -  403s
     0     0 -165.26736    0  840 -201.28832 -165.26736  17.9%     -  411s
     0     0 -165.41997    0  753 -201.28832 -165.41997  17.8%     -  419s
     0     0 -165.44029    0  839 -201.28832 -165.44029  17.8%     -  425s
     0     0 -165.44029    0  840 -201.28832 -165.44029  17.8%     -  428s
     0     0 -166.40883    0  852 -201.28832 -166.40883  17.3%     -  451s
     0     0 -166.43422    0  759 -201.28832 -166.43422  17.3%     -  473s
     0     0 -166.43950    0  860 -201.28832 -166.43950  17.3%     -  478s
     0     0 -166.44008    0  860 -201.28832 -166.44008  17.3%     -  481s
     0     0 -168.66820    0  904 -201.28832 -168.66820  16.2%     -  539s
     0     0 -168.71671    0  922 -201.28832 -168.71671  16.2%     -  550s
     0     0 -168.71832    0  924 -201.28832 -168.71832  16.2%     -  554s
     0     0 -169.66087    0  767 -201.28832 -169.66087  15.7%     -  578s
     0     0 -169.82265    0  895 -201.28832 -169.82265  15.6%     -  601s
     0     0 -169.88786    0  895 -201.28832 -169.88786  15.6%     -  609s
     0     0 -169.88786    0  891 -201.28832 -169.88786  15.6%     -  614s
     0     0 -170.39770    0  889 -201.28832 -170.39770  15.3%     -  635s
     0     0 -171.13625    0  746 -201.28832 -171.13625  15.0%     -  664s
     0     0 -171.25369    0  810 -201.28832 -171.25369  14.9%     -  681s
     0     0 -171.34142    0  805 -201.28832 -171.34142  14.9%     -  691s
     0     0 -171.34142    0  802 -201.28832 -171.34142  14.9%     -  695s
     0     0 -172.14395    0  869 -201.28832 -172.14395  14.5%     -  772s
H    0     0                    -198.8262429 -172.14395  13.4%     -  786s
     0     0 -172.18390    0  871 -198.82624 -172.18390  13.4%     -  794s
     0     0 -172.18752    0  876 -198.82624 -172.18752  13.4%     -  800s
     0     0 -172.18752    0  874 -198.82624 -172.18752  13.4%     -  804s
     0     0 -173.22786    0  878 -198.82624 -173.22786  12.9%     -  822s
     0     0 -173.81350    0  876 -198.82624 -173.81350  12.6%     -  865s
     0     0 -173.97562    0  877 -198.82624 -173.97562  12.5%     -  878s
     0     0 -173.97597    0  877 -198.82624 -173.97597  12.5%     -  884s
     0     0 -175.43283    0  862 -198.82624 -175.43283  11.8%     -  954s
     0     0 -175.54588    0  872 -198.82624 -175.54588  11.7%     -  992s
     0     0 -175.55926    0  878 -198.82624 -175.55926  11.7%     - 1001s
     0     0 -175.55926    0  878 -198.82624 -175.55926  11.7%     - 1005s
     0     0 -175.89188    0  781 -198.82624 -175.89188  11.5%     - 1032s
     0     0 -176.01823    0  858 -198.82624 -176.01823  11.5%     - 1060s
     0     0 -176.28927    0  872 -198.82624 -176.28927  11.3%     - 1081s
     0     0 -176.29011    0  881 -198.82624 -176.29011  11.3%     - 1088s
     0     0 -176.61035    0  900 -198.82624 -176.61035  11.2%     - 1150s
     0     0 -176.91961    0  902 -198.82624 -176.91961  11.0%     - 1185s
     0     0 -176.94025    0  904 -198.82624 -176.94025  11.0%     - 1191s
     0     0 -176.94025    0  907 -198.82624 -176.94025  11.0%     - 1196s
     0     0 -178.13203    0  919 -198.82624 -178.13203  10.4%     - 1236s
     0     0 -178.14872    0  929 -198.82624 -178.14872  10.4%     - 1249s
     0     0 -178.30709    0  915 -198.82624 -178.30709  10.3%     - 1261s
     0     0 -178.31287    0  915 -198.82624 -178.31287  10.3%     - 1268s
     0     0 -178.31287    0  916 -198.82624 -178.31287  10.3%     - 1272s
     0     0 -178.77348    0  914 -198.82624 -178.77348  10.1%     - 1289s
     0     0 -178.89121    0  915 -198.82624 -178.89121  10.0%     - 1301s
     0     0 -178.91833    0  916 -198.82624 -178.91833  10.0%     - 1309s
     0     0 -178.96208    0  916 -198.82624 -178.96208  10.0%     - 1313s
     0     0 -178.96643    0  911 -198.82624 -178.96643  10.0%     - 1317s
     0     0 -178.97549    0  922 -198.82624 -178.97549  10.0%     - 1325s
     0     0 -179.00505    0  927 -198.82624 -179.00505  10.0%     - 1330s
     0     0 -179.00505    0  927 -198.82624 -179.00505  10.0%     - 1335s
     0     0 -179.69372    0  913 -198.82624 -179.69372  9.62%     - 1353s
     0     0 -180.15285    0  914 -198.82624 -180.15285  9.39%     - 1376s
     0     0 -180.33022    0  905 -198.82624 -180.33022  9.30%     - 1384s
     0     0 -180.35805    0  919 -198.82624 -180.35805  9.29%     - 1392s
     0     0 -180.35912    0  918 -198.82624 -180.35912  9.29%     - 1399s
     0     0 -180.74615    0  907 -198.82624 -180.74615  9.09%     - 1418s
     0     0 -180.95468    0  824 -198.82624 -180.95468  8.99%     - 1428s
     0     0 -180.97117    0  923 -198.82624 -180.97117  8.98%     - 1433s
     0     0 -180.97221    0  922 -198.82624 -180.97221  8.98%     - 1437s
     0     0 -181.05669    0  919 -198.82624 -181.05669  8.94%     - 1452s
     0     0 -181.28314    0  913 -198.82624 -181.28314  8.82%     - 1465s
     0     0 -181.32806    0  916 -198.82624 -181.32806  8.80%     - 1472s
     0     0 -181.35863    0  915 -198.82624 -181.35863  8.79%     - 1478s
     0     0 -181.36945    0  911 -198.82624 -181.36945  8.78%     - 1485s
     0     0 -181.36945    0  914 -198.82624 -181.36945  8.78%     - 1489s
     0     0 -182.19843    0  924 -198.82624 -182.19843  8.36%     - 1509s
     0     0 -182.22855    0  931 -198.82624 -182.22855  8.35%     - 1532s
     0     0 -182.24147    0  935 -198.82624 -182.24147  8.34%     - 1539s
     0     0 -182.26362    0  934 -198.82624 -182.26362  8.33%     - 1545s
     0     0 -182.42012    0  930 -198.82624 -182.42012  8.25%     - 1554s
     0     0 -182.55983    0  915 -198.82624 -182.55983  8.18%     - 1565s
     0     0 -182.57287    0  919 -198.82624 -182.57287  8.17%     - 1570s
     0     0 -182.57606    0  926 -198.82624 -182.57606  8.17%     - 1574s
     0     0 -182.83087    0  906 -198.82624 -182.83087  8.04%     - 1587s
     0     0 -182.89112    0  908 -198.82624 -182.89112  8.01%     - 1596s
     0     0 -182.94114    0  919 -198.82624 -182.94114  7.99%     - 1601s
     0     0 -182.94666    0  918 -198.82624 -182.94666  7.99%     - 1608s
     0     0 -182.95696    0  918 -198.82624 -182.95696  7.98%     - 1613s
     0     0 -182.95696    0  918 -198.82624 -182.95696  7.98%     - 1616s
     0     0 -183.65335    0  901 -198.82624 -183.65335  7.63%     - 1640s
     0     0 -183.99761    0  915 -198.82624 -183.99761  7.46%     - 1655s
     0     0 -184.20158    0  906 -198.82624 -184.20158  7.36%     - 1665s
     0     0 -184.24551    0  903 -198.82624 -184.24551  7.33%     - 1674s
     0     0 -184.24636    0  913 -198.82624 -184.24636  7.33%     - 1679s
     0     0 -184.41403    0  917 -198.82624 -184.41403  7.25%     - 1692s
     0     0 -184.49822    0  920 -198.82624 -184.49822  7.21%     - 1711s
     0     0 -184.49822    0  921 -198.82624 -184.49822  7.21%     - 1715s
     0     0 -185.33812    0  906 -198.82624 -185.33812  6.78%     - 1732s
     0     0 -185.42018    0  920 -198.82624 -185.42018  6.74%     - 1743s
     0     0 -185.42169    0  917 -198.82624 -185.42169  6.74%     - 1749s
     0     0 -185.51685    0  905 -198.82624 -185.51685  6.69%     - 1763s
     0     0 -185.59382    0  912 -198.82624 -185.59382  6.66%     - 1775s
     0     0 -185.60342    0  917 -198.82624 -185.60342  6.65%     - 1780s
     0     0 -185.60352    0  925 -198.82624 -185.60352  6.65%     - 1785s
     0     0 -185.82586    0  910 -198.82624 -185.82586  6.54%     - 1799s
     0     0 -185.84148    0  904 -198.82624 -185.84148  6.53%     - 1819s
     0     0 -185.84546    0  918 -198.82624 -185.84546  6.53%     - 1824s
     0     0 -185.84827    0  920 -198.82624 -185.84827  6.53%     - 1830s
     0     0 -185.94616    0  914 -198.82624 -185.94616  6.48%     - 1843s
     0     0 -185.94756    0  915 -198.82624 -185.94756  6.48%     - 1851s
     0     0 -186.16143    0  915 -198.82624 -186.16143  6.37%     - 1863s
     0     0 -186.21762    0  907 -198.82624 -186.21762  6.34%     - 1871s
     0     0 -186.23102    0  912 -198.82624 -186.23102  6.33%     - 1877s
     0     0 -186.23343    0  916 -198.82624 -186.23343  6.33%     - 1883s
     0     0 -186.49901    0  910 -198.82624 -186.49901  6.20%     - 1895s
     0     0 -186.64484    0  924 -198.82624 -186.64484  6.13%     - 1904s
     0     0 -186.65712    0  923 -198.82624 -186.65712  6.12%     - 1911s
     0     0 -186.66121    0  927 -198.82624 -186.66121  6.12%     - 1915s
     0     0 -186.66335    0  925 -198.82624 -186.66335  6.12%     - 1919s
     0     0 -187.26468    0  914 -198.82624 -187.26468  5.81%     - 1936s
     0     0 -187.32946    0  919 -198.82624 -187.32946  5.78%     - 1952s
     0     0 -187.34711    0  919 -198.82624 -187.34711  5.77%     - 1958s
     0     0 -187.35540    0  919 -198.82624 -187.35540  5.77%     - 1963s
     0     0 -187.35628    0  912 -198.82624 -187.35628  5.77%     - 1967s
     0     0 -187.67624    0  912 -198.82624 -187.67624  5.61%     - 1980s
     0     0 -187.76306    0  923 -198.82624 -187.76306  5.56%     - 1989s
     0     0 -187.89955    0  926 -198.82624 -187.89955  5.50%     - 1994s
     0     0 -187.93342    0  925 -198.82624 -187.93342  5.48%     - 2000s
     0     0 -187.94776    0  929 -198.82624 -187.94776  5.47%     - 2005s
     0     0 -187.96742    0  929 -198.82624 -187.96742  5.46%     - 2010s
     0     0 -187.97890    0  930 -198.82624 -187.97890  5.46%     - 2015s
     0     0 -187.98091    0  931 -198.82624 -187.98091  5.45%     - 2020s
     0     0 -188.24438    0  906 -198.82624 -188.24438  5.32%     - 2032s
     0     0 -188.31714    0  908 -198.82624 -188.31714  5.29%     - 2050s
     0     0 -188.32793    0  911 -198.82624 -188.32793  5.28%     - 2055s
     0     0 -188.32891    0  913 -198.82624 -188.32891  5.28%     - 2059s
     0     0 -188.41333    0  914 -198.82624 -188.41333  5.24%     - 2069s
     0     0 -188.43250    0  912 -198.82624 -188.43250  5.23%     - 2077s
     0     0 -188.43327    0  919 -198.82624 -188.43327  5.23%     - 2082s
     0     0 -188.49978    0  914 -198.82624 -188.49978  5.19%     - 2094s
     0     0 -188.54312    0  911 -198.82624 -188.54312  5.17%     - 2103s
     0     0 -188.55365    0  915 -198.82624 -188.55365  5.17%     - 2108s
     0     0 -188.55528    0  918 -198.82624 -188.55528  5.17%     - 2113s
     0     0 -188.56117    0  922 -198.82624 -188.56117  5.16%     - 2122s
     0     0 -188.56165    0  920 -198.82624 -188.56165  5.16%     - 2128s
     0     0 -188.56188    0  921 -198.82624 -188.56188  5.16%     - 2137s
     0     0 -188.56188    0  869 -198.82624 -188.56188  5.16%     - 2267s
     0     2 -188.56290    0  860 -198.82624 -188.56290  5.16%     - 2441s
     1     3 -188.65221    1  768 -198.82624 -188.56437  5.16%  2411 2445s
     2     4 -192.26164    2  625 -198.82624 -188.56437  5.16%  3398 2465s
     3     5 -191.21831    2  554 -198.82624 -188.56437  5.16%  2610 2472s
     4     6 -195.52694    3  543 -198.82624 -188.56437  5.16%  2066 2476s
     5     7 -196.75798    3  510 -198.82624 -188.56437  5.16%  1758 2481s
     9     6 -188.64488    1  765 -198.82624 -188.64488  5.12%  1104 2487s
    10     7 -192.91926    2  711 -198.82624 -188.64572  5.12%  1879 2587s
    11     8 -197.50169    3  509 -198.82624 -188.64572  5.12%  3282 2798s
    12     9 -198.15379    3  595 -198.82624 -188.64572  5.12%  3950 2956s
    13     8     cutoff    4      -198.82624 -188.64572  5.12%  3703 2962s
    14     7     cutoff    4      -198.82624 -188.64572  5.12%  3463 2967s
    15     6     cutoff    4      -198.82624 -188.64572  5.12%  3556 3026s
    16     5     cutoff    4      -198.82624 -188.64572  5.12%  3868 3137s
    17     6 -191.34420    2  673 -198.82624 -191.34420  3.76%  4565 3314s
    18     7 -193.82540    3  581 -198.82624 -191.34420  3.76%  4431 3336s
    19     8 -198.10253    4  493 -198.82624 -191.34420  3.76%  4526 3399s
    20     7     cutoff    5      -198.82624 -191.34420  3.76%  4312 3401s
    22     7 -197.45408    4  549 -198.82624 -191.34420  3.76%  4406 3526s
    23     8 -197.89713    5  532 -198.82624 -191.34420  3.76%  4283 3549s
    24     9 -198.08659    6  510 -198.82624 -191.34420  3.76%  4113 3552s
    26     9 -198.42448    7  435 -198.82624 -191.34420  3.76%  3854 3565s
    29     8     cutoff    9      -198.82624 -191.34420  3.76%  3484 3571s
    32     7 -192.34189    3  745 -198.82624 -192.27184  3.30%  3440 3699s
    33     8 -196.93308    4  683 -198.82624 -192.27184  3.30%  3417 3717s
    34     9 -198.09400    5  564 -198.82624 -192.27184  3.30%  3327 3721s
    37     6     cutoff    5      -198.82624 -192.27184  3.30%  3082 3727s
    38     7 -194.32172    4  727 -198.82624 -192.27184  3.30%  3227 3835s
    39     8 -195.57629    5  721 -198.82624 -192.27184  3.30%  3212 3851s
    40     9 -197.27572    6  688 -198.82624 -192.27184  3.30%  3150 3859s
    41    10 -197.33229    7  582 -198.82624 -192.27184  3.30%  3076 3863s
    42    11 -197.94781    8  579 -198.82624 -192.27184  3.30%  3009 3866s
    43    10     cutoff    8      -198.82624 -192.27184  3.30%  2949 3870s
    46     7     cutoff    7      -198.82624 -192.27184  3.30%  2770 3875s
    47     8 -192.76655    3  584 -198.82624 -192.31694  3.27%  2738 3881s
    48     9 -194.19963    4  484 -198.82624 -192.31694  3.27%  2715 3890s
    49    10 -197.27723    5  354 -198.82624 -192.31694  3.27%  2694 3900s
H   54    13                    -197.8517105 -192.31694  2.80%  2456 3905s
    56    11 -195.78969    3  463 -197.85171 -192.77175  2.57%  2409 3917s
    58     9     cutoff    4      -197.85171 -192.77175  2.57%  2335 3920s
    59    10 -194.45101    4  559 -197.85171 -194.29315  1.80%  2387 3953s
    60     9     cutoff    5      -197.85171 -194.29315  1.80%  2389 3966s
    61    10 -196.60957    5  497 -197.85171 -194.29315  1.80%  2394 3982s
    62    11 -197.43026    6  446 -197.85171 -194.29315  1.80%  2365 3988s
    64     9     cutoff    7      -197.85171 -194.29315  1.80%  2295 3990s
    66     9 -196.66171    5  424 -197.85171 -194.37704  1.76%  2278 4017s
    68     7     cutoff    6      -197.85171 -194.37704  1.76%  2218 4021s
    69     6     cutoff    5      -197.85171 -195.52694  1.18%  2403 4223s
    70     5     cutoff    4      -197.85171 -195.52694  1.18%  2377 4225s
    74     5 -196.49544    6  721 -197.85171 -196.49544  0.69%  2282 4240s
    75     4     cutoff    7      -197.85171 -196.49544  0.69%  2263 4247s
    76     3     cutoff    7      -197.85171 -197.45431  0.20%  2329 4337s
    77     2     cutoff    5      -197.85171 -197.82659  0.01%  2393 4428s

Cutting planes:
  Gomory: 3
  Implied bound: 2
  MIR: 3
  Zero half: 502

Explored 80 nodes (309943 simplex iterations) in 4429.12 seconds
Thread count was 1 (of 80 available processors)

Solution count 9: -197.852 -198.826 -201.288 ... -7158.64

Optimal solution found (tolerance 1.00e-04)
Best objective -1.978517104657e+02, best bound -1.978517104657e+02, gap 0.0000%
